3 
4  54 
5  18 34 49 
6  03 18 35 50 
7  05 20 35 50 
8  05 20 35 50 
9  05 20 37 52 
10  07 22 37 52 
11  07 22 37 52 
12  07 22 37 52 
13  07 22 37 52 
14  07 22 36 50 
15  05 20 35 50 
16  05 20 35 50 
17  05 20 35 50 
18  05 20 36 51 
19  06 21 36 51 
20  06 21 36 51 
21  06 36 
22  
23  
0 
